This is Ipopt version 3.10.0, running with linear solver ma27.

Number of nonzeros in equality constraint Jacobian...:        0
Number of nonzeros in inequality constraint Jacobian.:       48
Number of nonzeros in Lagrangian Hessian.............:        0

Total number of variables............................:        6
                     variables with only lower bounds:        3
                variables with lower and upper bounds:        3
                     variables with only upper bounds:        0
Total number of equality constraints.................:        0
Total number of inequality constraints...............:        8
        inequality constraints with only lower bounds:        0
   inequality constraints with lower and upper bounds:        0
        inequality constraints with only upper bounds:        8

iter    objective    inf_pr   inf_du lg(mu)  ||d||  lg(rg) alpha_du alpha_pr  ls
   0  3.8435688e+00 6.38e+00 1.22e+00   0.0 0.00e+00    -  0.00e+00 0.00e+00   0
   1  6.3619352e+00 2.70e+00 3.59e+00  -0.3 6.24e+00    -  4.40e-01 1.00e+00f  1
   2  7.1247722e+00 2.26e+00 1.85e+01  -0.3 1.86e+00    -  5.82e-01 9.70e-01h  1
   3  8.8212127e+00 1.10e+00 9.70e+00  -0.3 1.79e+00    -  1.00e+00 4.66e-01h  1
   4  1.5215695e+01 3.84e-01 1.09e+01  -0.1 2.51e+00    -  8.09e-01 1.00e+00h  1
   5  1.6551282e+01 0.00e+00 3.62e+00   0.1 1.60e+00    -  1.00e+00 8.67e-01h  1
   6  1.6412843e+01 0.00e+00 1.73e+00  -0.6 4.42e-01    -  8.74e-01 1.00e+00f  1
   7  1.4687871e+01 7.72e-02 1.31e+00  -1.5 1.67e+00    -  9.87e-01 1.00e+00f  1
   8  1.4679774e+01 9.42e-03 5.04e-01  -1.4 6.73e-01    -  9.40e-01 7.36e-01H  1
   9  1.4689428e+01 3.41e-04 2.37e+00  -2.6 1.26e-01    -  1.00e+00 1.00e+00h  1
iter    objective    inf_pr   inf_du lg(mu)  ||d||  lg(rg) alpha_du alpha_pr  ls
  10  1.4686298e+01 5.88e-03 3.79e-01  -2.9 6.21e-02    -  1.00e+00 9.99e-01h  1
  11  1.4707561e+01 4.41e-04 4.90e-01  -3.9 4.89e-02    -  9.46e-01 9.20e-01H  1
  12  1.4688781e+01 9.36e-02 9.24e-01  -4.4 1.62e-01    -  1.00e+00 1.00e+00h  1
  13  1.4739244e+01 8.50e-03 1.05e+00  -4.4 1.54e-01    -  3.78e-01 1.00e+00h  1
  14  1.4722087e+01 5.00e-03 7.05e-01  -4.4 6.44e-02    -  1.00e+00 1.00e+00h  1
  15  1.4722035e+01 1.49e-02 6.33e-01  -4.4 2.13e-02    -  3.44e-01 1.00e+00h  1
  16  1.4721804e+01 1.18e-02 1.32e+00  -4.4 2.29e-02    -  1.00e+00 6.25e-02h  5
